c defined variables: 39 40 41 42 43 44 45 46 47 48 49 50 51 52 53 54 55 56 57 58 59 60 61 62 63 64 65 66 67 68 69 70 71 72 73 74 75 76 77 80 81 82 83 86 89 92 95 98 99 100 101 102 103 104 105 106 107 108 109 110 111 112 113 114 115 116 117 118 119 120 121 122 123 124 125 126 127 128 129 130 131 132 133 134 135 136 137 138 139 140 141 142 143 144 145 146 147 148 149 150 151 152 153 154 155 156 157 158 159 160 161 162 163 164 165 166 167 168 169 170 171 172 173 174 175 176 177 178 179 180 181 182 183 184 185 186 187 188 189 190 191 192 193 194 195 196 197 198 199 200 201 202 203 204 205 206 207 208 209 210 211 212 213 214 215 216 217 218 219 220 221 222 223 224 225 226 227 228 229 230 231 232 233 234 235 236 237 
p cnf 1017 1513
a 9 10 11 12 13 14 15 16 17 18 19 20 21 22 23 24 25 26 27 28 29 30 31 32 33 34 35 36 0
e 78 79 84 85 87 88 90 91 93 94 96 97 39 40 41 42 43 44 45 46 47 48 49 50 51 52 53 54 55 56 57 58 59 60 61 62 63 64 65 66 67 68 69 70 71 72 73 74 75 76 77 80 81 82 83 86 89 92 95 98 99 100 101 102 103 104 105 106 107 108 109 110 111 112 113 114 115 116 117 118 119 120 121 122 123 124 125 126 127 128 129 130 131 132 133 134 135 136 137 138 139 140 141 142 143 144 145 146 147 148 149 150 151 152 153 154 155 156 157 158 159 160 161 162 163 164 165 166 167 168 169 170 171 172 173 174 175 176 177 178 179 180 181 182 183 184 185 186 187 188 189 190 191 192 193 194 195 196 197 198 199 200 201 202 203 204 205 206 207 208 209 210 211 212 213 214 215 216 217 218 219 220 221 222 223 224 225 226 227 228 229 230 231 232 233 234 235 236 237 837 838 839 840 841 842 843 844 845 846 847 848 849 850 851 852 853 854 855 856 857 858 859 860 861 862 863 864 865 866 867 868 869 870 871 872 873 874 875 876 877 878 879 880 881 882 883 884 885 886 887 888 889 890 891 892 893 894 895 896 897 898 899 900 901 902 903 904 905 906 907 908 909 910 911 912 913 914 915 916 917 918 919 920 921 922 923 924 925 926 927 928 929 930 931 932 933 934 935 936 937 938 939 940 941 942 943 944 945 946 947 948 949 950 951 952 953 954 955 956 957 958 959 960 961 962 963 964 965 966 967 968 969 970 971 972 973 974 975 976 977 978 979 980 981 982 983 984 985 986 987 988 989 990 991 992 993 994 995 996 997 998 999 1000 1001 1002 1003 1004 1005 1006 1007 1008 1009 1010 1011 1012 1013 1014 1015 1016 1017 0
d 1 9 10 11 12 13 14 15 16 17 18 19 20 21 22 23 24 25 26 0
d 2 9 10 11 12 13 14 15 16 17 18 19 20 21 22 23 24 25 26 0
d 3 9 10 11 12 13 14 15 16 17 18 19 20 21 22 23 24 25 26 0
d 4 9 10 11 12 13 14 15 16 17 18 19 20 21 22 23 24 25 26 0
d 5 9 10 11 12 13 14 15 16 17 18 19 20 21 22 23 24 25 26 0
d 6 9 10 11 12 13 14 15 16 17 18 19 20 21 22 23 24 25 26 0
d 7 9 10 11 12 13 14 15 16 17 18 19 20 21 22 23 24 25 26 0
d 8 9 10 11 12 13 14 15 16 17 18 19 20 21 22 23 24 25 26 0
d 37 17 18 19 20 21 22 23 24 25 26 0
d 38 27 28 29 30 31 32 33 34 35 36 0
838 -39 0
-838 39 0
839 -40 0
-839 40 0
840 -41 0
-840 41 0
841 -42 0
-841 42 0
842 -43 0
-842 43 0
843 -44 0
-843 44 0
844 -45 0
-844 45 0
845 -46 0
-845 46 0
846 -47 0
-846 47 0
847 -48 0
-847 48 0
848 -49 0
-848 49 0
849 -50 0
-849 50 0
850 -51 0
-850 51 0
851 -52 0
-851 52 0
852 -53 0
-852 53 0
853 -54 0
-853 54 0
854 -55 0
-854 55 0
855 -56 0
-855 56 0
856 -57 0
-856 57 0
857 -58 0
-857 58 0
858 -59 0
-858 59 0
859 -60 0
-859 60 0
860 -61 0
-860 61 0
861 -62 0
-861 62 0
862 -63 0
-862 63 0
863 -64 0
-863 64 0
864 -65 0
-864 65 0
865 -66 0
-865 66 0
866 -67 0
-866 67 0
867 -68 0
-867 68 0
868 -69 0
-868 69 0
869 -70 0
-869 70 0
870 -71 0
-870 71 0
871 -72 0
-871 72 0
872 -73 0
-872 73 0
873 -74 0
-873 74 0
874 -75 0
-874 75 0
875 -76 0
-875 76 0
876 -77 0
-876 77 0
877 -80 0
-877 80 0
-837 -81 0
837 81 0
878 -82 0
-878 82 0
879 -83 0
-879 83 0
880 -86 0
-880 86 0
881 -89 0
-881 89 0
882 -92 0
-882 92 0
883 -95 0
-883 95 0
884 -98 0
-884 98 0
885 -99 0
-885 99 0
886 -100 0
-886 100 0
887 -101 0
-887 101 0
888 -102 0
-888 102 0
889 -103 0
-889 103 0
890 -104 0
-890 104 0
891 -105 0
-891 105 0
892 -106 0
-892 106 0
893 -107 0
-893 107 0
894 -108 0
-894 108 0
895 -109 0
-895 109 0
896 -110 0
-896 110 0
897 -111 0
-897 111 0
898 -112 0
-898 112 0
899 -113 0
-899 113 0
900 -114 0
-900 114 0
901 -115 0
-901 115 0
902 -116 0
-902 116 0
903 -117 0
-903 117 0
904 -118 0
-904 118 0
905 -119 0
-905 119 0
906 -120 0
-906 120 0
907 -121 0
-907 121 0
908 -122 0
-908 122 0
909 -123 0
-909 123 0
910 -124 0
-910 124 0
911 -125 0
-911 125 0
912 -126 0
-912 126 0
913 -127 0
-913 127 0
914 -128 0
-914 128 0
915 -129 0
-915 129 0
916 -130 0
-916 130 0
917 -131 0
-917 131 0
918 -132 0
-918 132 0
919 -133 0
-919 133 0
920 -134 0
-920 134 0
921 -135 0
-921 135 0
922 -136 0
-922 136 0
923 -137 0
-923 137 0
924 -138 0
-924 138 0
925 -139 0
-925 139 0
926 -140 0
-926 140 0
927 -141 0
-927 141 0
928 -142 0
-928 142 0
929 -143 0
-929 143 0
930 -144 0
-930 144 0
931 -145 0
-931 145 0
932 -146 0
-932 146 0
933 -147 0
-933 147 0
934 -148 0
-934 148 0
935 -149 0
-935 149 0
936 -150 0
-936 150 0
937 -151 0
-937 151 0
938 -152 0
-938 152 0
939 -153 0
-939 153 0
940 -154 0
-940 154 0
941 -155 0
-941 155 0
942 -156 0
-942 156 0
943 -157 0
-943 157 0
944 -158 0
-944 158 0
945 -159 0
-945 159 0
946 -160 0
-946 160 0
947 -161 0
-947 161 0
948 -162 0
-948 162 0
949 -163 0
-949 163 0
950 -164 0
-950 164 0
951 -165 0
-951 165 0
952 -166 0
-952 166 0
953 -167 0
-953 167 0
954 -168 0
-954 168 0
955 -169 0
-955 169 0
956 -170 0
-956 170 0
957 -171 0
-957 171 0
958 -172 0
-958 172 0
959 -173 0
-959 173 0
960 -174 0
-960 174 0
961 -175 0
-961 175 0
962 -176 0
-962 176 0
963 -177 0
-963 177 0
964 -178 0
-964 178 0
965 -179 0
-965 179 0
966 -180 0
-966 180 0
967 -181 0
-967 181 0
968 -182 0
-968 182 0
969 -183 0
-969 183 0
970 -184 0
-970 184 0
971 -185 0
-971 185 0
972 -186 0
-972 186 0
973 -187 0
-973 187 0
974 -188 0
-974 188 0
975 -189 0
-975 189 0
976 -190 0
-976 190 0
977 -191 0
-977 191 0
978 -192 0
-978 192 0
979 -193 0
-979 193 0
980 -194 0
-980 194 0
981 -195 0
-981 195 0
982 -196 0
-982 196 0
983 -197 0
-983 197 0
984 -198 0
-984 198 0
985 -199 0
-985 199 0
986 -200 0
-986 200 0
987 -201 0
-987 201 0
988 -202 0
-988 202 0
989 -203 0
-989 203 0
990 -204 0
-990 204 0
991 -205 0
-991 205 0
992 -206 0
-992 206 0
993 -207 0
-993 207 0
994 -208 0
-994 208 0
995 -209 0
-995 209 0
996 -210 0
-996 210 0
997 -211 0
-997 211 0
998 -212 0
-998 212 0
999 -213 0
-999 213 0
1000 -214 0
-1000 214 0
-837 -215 0
837 215 0
1001 -216 0
-1001 216 0
1002 -217 0
-1002 217 0
1003 -218 0
-1003 218 0
1004 -219 0
-1004 219 0
1005 -220 0
-1005 220 0
1006 -221 0
-1006 221 0
1007 -222 0
-1007 222 0
1008 -223 0
-1008 223 0
-837 -224 0
837 224 0
1009 -225 0
-1009 225 0
1010 -226 0
-1010 226 0
1011 -227 0
-1011 227 0
1012 -228 0
-1012 228 0
1013 -229 0
-1013 229 0
1014 -230 0
-1014 230 0
1015 -231 0
-1015 231 0
1016 -232 0
-1016 232 0
1017 -233 0
-1017 233 0
-837 -234 0
837 234 0
837 -235 0
-837 235 0
837 -236 0
-837 236 0
837 -237 0
-837 237 0
-39 -35 0
-39 25 0
39 35 -25 0
-40 35 0
-40 -25 0
40 -35 25 0
-41 -39 0
-41 -40 0
41 39 40 0
-42 -36 0
-42 26 0
42 36 -26 0
-43 36 0
-43 -26 0
43 -36 26 0
-44 -42 0
-44 -43 0
44 42 43 0
-45 41 0
-45 44 0
45 -41 -44 0
-46 -27 0
-46 17 0
46 27 -17 0
-47 27 0
-47 -17 0
47 -27 17 0
-48 -46 0
-48 -47 0
48 46 47 0
-49 -28 0
-49 18 0
49 28 -18 0
-50 28 0
-50 -18 0
50 -28 18 0
-51 -49 0
-51 -50 0
51 49 50 0
-52 48 0
-52 51 0
52 -48 -51 0
-53 -29 0
-53 19 0
53 29 -19 0
-54 29 0
-54 -19 0
54 -29 19 0
-55 -53 0
-55 -54 0
55 53 54 0
-56 -30 0
-56 20 0
56 30 -20 0
-57 30 0
-57 -20 0
57 -30 20 0
-58 -56 0
-58 -57 0
58 56 57 0
-59 55 0
-59 58 0
59 -55 -58 0
-60 52 0
-60 59 0
60 -52 -59 0
-61 -31 0
-61 21 0
61 31 -21 0
-62 31 0
-62 -21 0
62 -31 21 0
-63 -61 0
-63 -62 0
63 61 62 0
-64 -32 0
-64 22 0
64 32 -22 0
-65 32 0
-65 -22 0
65 -32 22 0
-66 -64 0
-66 -65 0
66 64 65 0
-67 63 0
-67 66 0
67 -63 -66 0
-68 -33 0
-68 23 0
68 33 -23 0
-69 33 0
-69 -23 0
69 -33 23 0
-70 -68 0
-70 -69 0
70 68 69 0
-71 -34 0
-71 24 0
71 34 -24 0
-72 34 0
-72 -24 0
72 -34 24 0
-73 -71 0
-73 -72 0
73 71 72 0
-74 70 0
-74 73 0
74 -70 -73 0
-75 67 0
-75 74 0
75 -67 -74 0
-76 60 0
-76 75 0
76 -60 -75 0
-77 45 0
-77 76 0
77 -45 -76 0
-78 38 0
-78 -37 0
78 -38 37 0
-79 -38 0
-79 37 0
79 38 -37 0
-80 -78 0
-80 -79 0
80 78 79 0
-81 77 0
-81 -80 0
81 -77 80 0
-82 25 0
-82 17 0
82 -25 -17 0
-83 26 0
-83 17 0
83 -26 -17 0
-84 -2 0
-84 1 0
84 2 -1 0
-85 2 0
-85 -1 0
85 -2 1 0
-86 -84 0
-86 -85 0
86 84 85 0
-87 -3 0
-87 -86 0
87 3 86 0
-88 3 0
-88 86 0
88 -3 -86 0
-89 -87 0
-89 -88 0
89 87 88 0
-90 -4 0
-90 -89 0
90 4 89 0
-91 4 0
-91 89 0
91 -4 -89 0
-92 -90 0
-92 -91 0
92 90 91 0
-93 -5 0
-93 -92 0
93 5 92 0
-94 5 0
-94 92 0
94 -5 -92 0
-95 -93 0
-95 -94 0
95 93 94 0
-96 6 0
-96 -95 0
96 -6 95 0
-97 -6 0
-97 95 0
97 6 -95 0
-98 -96 0
-98 -97 0
98 96 97 0
-99 83 0
-99 98 0
99 -83 -98 0
-100 24 0
-100 17 0
100 -24 -17 0
-101 23 0
-101 17 0
101 -23 -17 0
-102 22 0
-102 17 0
102 -22 -17 0
-103 21 0
-103 17 0
103 -21 -17 0
-104 20 0
-104 17 0
104 -20 -17 0
-105 19 0
-105 17 0
105 -19 -17 0
-106 18 0
-106 17 0
106 -18 -17 0
-107 9 0
-107 106 0
107 -9 -106 0
-108 10 0
-108 107 0
108 -10 -107 0
-109 -105 0
-109 -108 0
109 105 108 0
-110 -10 0
-110 -107 0
110 10 107 0
-111 -109 0
-111 -110 0
111 109 110 0
-112 11 0
-112 111 0
112 -11 -111 0
-113 -104 0
-113 -112 0
113 104 112 0
-114 -11 0
-114 -111 0
114 11 111 0
-115 -113 0
-115 -114 0
115 113 114 0
-116 12 0
-116 115 0
116 -12 -115 0
-117 -103 0
-117 -116 0
117 103 116 0
-118 -12 0
-118 -115 0
118 12 115 0
-119 -117 0
-119 -118 0
119 117 118 0
-120 13 0
-120 119 0
120 -13 -119 0
-121 -102 0
-121 -120 0
121 102 120 0
-122 -13 0
-122 -119 0
122 13 119 0
-123 -121 0
-123 -122 0
123 121 122 0
-124 14 0
-124 123 0
124 -14 -123 0
-125 -101 0
-125 -124 0
125 101 124 0
-126 -14 0
-126 -123 0
126 14 123 0
-127 -125 0
-127 -126 0
127 125 126 0
-128 15 0
-128 127 0
128 -15 -127 0
-129 -100 0
-129 -128 0
129 100 128 0
-130 -15 0
-130 -127 0
130 15 127 0
-131 -129 0
-131 -130 0
131 129 130 0
-132 16 0
-132 131 0
132 -16 -131 0
-133 -16 0
-133 -131 0
133 16 131 0
-134 -132 0
-134 -133 0
134 132 133 0
-135 -99 0
-135 134 0
135 99 -134 0
-136 82 0
-136 135 0
136 -82 -135 0
-137 -82 0
-137 -135 0
137 82 135 0
-138 -136 0
-138 -137 0
138 136 137 0
-139 -35 0
-139 138 0
139 35 -138 0
-140 35 0
-140 -138 0
140 -35 138 0
-141 -139 0
-141 -140 0
141 139 140 0
-142 -82 0
-142 -132 0
142 82 132 0
-143 -142 0
-143 -133 0
143 142 133 0
-144 83 0
-144 -143 0
144 -83 143 0
-145 -83 0
-145 143 0
145 83 -143 0
-146 -144 0
-146 -145 0
146 144 145 0
-147 -146 0
-147 -99 0
147 146 99 0
-148 -36 0
-148 147 0
148 36 -147 0
-149 36 0
-149 -147 0
149 -36 147 0
-150 -148 0
-150 -149 0
150 148 149 0
-151 141 0
-151 150 0
151 -141 -150 0
-152 9 0
-152 -99 0
152 -9 99 0
-153 -106 0
-153 152 0
153 106 -152 0
-154 106 0
-154 -152 0
154 -106 152 0
-155 -153 0
-155 -154 0
155 153 154 0
-156 -28 0
-156 -155 0
156 28 155 0
-157 28 0
-157 155 0
157 -28 -155 0
-158 -156 0
-158 -157 0
158 156 157 0
-159 27 0
-159 158 0
159 -27 -158 0
-160 -108 0
-160 -110 0
160 108 110 0
-161 -99 0
-161 160 0
161 99 -160 0
-162 105 0
-162 161 0
162 -105 -161 0
-163 -105 0
-163 -161 0
163 105 161 0
-164 -162 0
-164 -163 0
164 162 163 0
-165 -29 0
-165 164 0
165 29 -164 0
-166 29 0
-166 -164 0
166 -29 164 0
-167 -165 0
-167 -166 0
167 165 166 0
-168 -112 0
-168 -114 0
168 112 114 0
-169 -99 0
-169 168 0
169 99 -168 0
-170 104 0
-170 169 0
170 -104 -169 0
-171 -104 0
-171 -169 0
171 104 169 0
-172 -170 0
-172 -171 0
172 170 171 0
-173 -30 0
-173 172 0
173 30 -172 0
-174 30 0
-174 -172 0
174 -30 172 0
-175 -173 0
-175 -174 0
175 173 174 0
-176 167 0
-176 175 0
176 -167 -175 0
-177 159 0
-177 176 0
177 -159 -176 0
-178 -116 0
-178 -118 0
178 116 118 0
-179 -99 0
-179 178 0
179 99 -178 0
-180 103 0
-180 179 0
180 -103 -179 0
-181 -103 0
-181 -179 0
181 103 179 0
-182 -180 0
-182 -181 0
182 180 181 0
-183 -31 0
-183 182 0
183 31 -182 0
-184 31 0
-184 -182 0
184 -31 182 0
-185 -183 0
-185 -184 0
185 183 184 0
-186 -120 0
-186 -122 0
186 120 122 0
-187 -99 0
-187 186 0
187 99 -186 0
-188 102 0
-188 187 0
188 -102 -187 0
-189 -102 0
-189 -187 0
189 102 187 0
-190 -188 0
-190 -189 0
190 188 189 0
-191 -32 0
-191 190 0
191 32 -190 0
-192 32 0
-192 -190 0
192 -32 190 0
-193 -191 0
-193 -192 0
193 191 192 0
-194 185 0
-194 193 0
194 -185 -193 0
-195 -124 0
-195 -126 0
195 124 126 0
-196 -99 0
-196 195 0
196 99 -195 0
-197 101 0
-197 196 0
197 -101 -196 0
-198 -101 0
-198 -196 0
198 101 196 0
-199 -197 0
-199 -198 0
199 197 198 0
-200 -33 0
-200 199 0
200 33 -199 0
-201 33 0
-201 -199 0
201 -33 199 0
-202 -200 0
-202 -201 0
202 200 201 0
-203 -128 0
-203 -130 0
203 128 130 0
-204 -99 0
-204 203 0
204 99 -203 0
-205 100 0
-205 204 0
205 -100 -204 0
-206 -100 0
-206 -204 0
206 100 204 0
-207 -205 0
-207 -206 0
207 205 206 0
-208 -34 0
-208 207 0
208 34 -207 0
-209 34 0
-209 -207 0
209 -34 207 0
-210 -208 0
-210 -209 0
210 208 209 0
-211 202 0
-211 210 0
211 -202 -210 0
-212 194 0
-212 211 0
212 -194 -211 0
-213 177 0
-213 212 0
213 -177 -212 0
-214 151 0
-214 213 0
214 -151 -213 0
-215 214 0
-215 79 0
215 -214 -79 0
-216 18 0
-216 105 0
216 -18 -105 0
-217 104 0
-217 216 0
217 -104 -216 0
-218 103 0
-218 217 0
218 -103 -217 0
-219 102 0
-219 218 0
219 -102 -218 0
-220 101 0
-220 219 0
220 -101 -219 0
-221 100 0
-221 220 0
221 -100 -220 0
-222 82 0
-222 221 0
222 -82 -221 0
-223 83 0
-223 222 0
223 -83 -222 0
-224 37 0
-224 223 0
224 -37 -223 0
-225 -26 0
-225 -25 0
225 26 25 0
-226 -18 0
-226 -17 0
226 18 17 0
-227 -20 0
-227 -19 0
227 20 19 0
-228 226 0
-228 227 0
228 -226 -227 0
-229 -22 0
-229 -21 0
229 22 21 0
-230 -24 0
-230 -23 0
230 24 23 0
-231 229 0
-231 230 0
231 -229 -230 0
-232 228 0
-232 231 0
232 -228 -231 0
-233 225 0
-233 232 0
233 -225 -232 0
-234 -37 0
-234 233 0
234 37 -233 0
-235 -224 0
-235 -234 0
235 224 234 0
-236 -215 0
-236 235 0
236 215 -235 0
-237 -81 0
-237 236 0
237 81 -236 0
237 0
837 0
25 -838 0
-35 -838 0
-25 35 838 0
-25 -839 0
35 -839 0
25 -35 839 0
-39 -840 0
-40 -840 0
39 40 840 0
26 -841 0
-36 -841 0
-26 36 841 0
-26 -842 0
36 -842 0
26 -36 842 0
-42 -843 0
-43 -843 0
42 43 843 0
41 -844 0
44 -844 0
-41 -44 844 0
17 -845 0
-27 -845 0
-17 27 845 0
-17 -846 0
27 -846 0
17 -27 846 0
-46 -847 0
-47 -847 0
46 47 847 0
18 -848 0
-28 -848 0
-18 28 848 0
-18 -849 0
28 -849 0
18 -28 849 0
-49 -850 0
-50 -850 0
49 50 850 0
48 -851 0
51 -851 0
-48 -51 851 0
19 -852 0
-29 -852 0
-19 29 852 0
-19 -853 0
29 -853 0
19 -29 853 0
-53 -854 0
-54 -854 0
53 54 854 0
20 -855 0
-30 -855 0
-20 30 855 0
-20 -856 0
30 -856 0
20 -30 856 0
-56 -857 0
-57 -857 0
56 57 857 0
55 -858 0
58 -858 0
-55 -58 858 0
52 -859 0
59 -859 0
-52 -59 859 0
21 -860 0
-31 -860 0
-21 31 860 0
-21 -861 0
31 -861 0
21 -31 861 0
-61 -862 0
-62 -862 0
61 62 862 0
22 -863 0
-32 -863 0
-22 32 863 0
-22 -864 0
32 -864 0
22 -32 864 0
-64 -865 0
-65 -865 0
64 65 865 0
63 -866 0
66 -866 0
-63 -66 866 0
23 -867 0
-33 -867 0
-23 33 867 0
-23 -868 0
33 -868 0
23 -33 868 0
-68 -869 0
-69 -869 0
68 69 869 0
24 -870 0
-34 -870 0
-24 34 870 0
-24 -871 0
34 -871 0
24 -34 871 0
-71 -872 0
-72 -872 0
71 72 872 0
70 -873 0
73 -873 0
-70 -73 873 0
67 -874 0
74 -874 0
-67 -74 874 0
60 -875 0
75 -875 0
-60 -75 875 0
45 -876 0
76 -876 0
-45 -76 876 0
-78 -877 0
-79 -877 0
78 79 877 0
17 -878 0
25 -878 0
-17 -25 878 0
17 -879 0
26 -879 0
-17 -26 879 0
-84 -880 0
-85 -880 0
84 85 880 0
-87 -881 0
-88 -881 0
87 88 881 0
-90 -882 0
-91 -882 0
90 91 882 0
-93 -883 0
-94 -883 0
93 94 883 0
-96 -884 0
-97 -884 0
96 97 884 0
83 -885 0
98 -885 0
-83 -98 885 0
17 -886 0
24 -886 0
-17 -24 886 0
17 -887 0
23 -887 0
-17 -23 887 0
17 -888 0
22 -888 0
-17 -22 888 0
17 -889 0
21 -889 0
-17 -21 889 0
17 -890 0
20 -890 0
-17 -20 890 0
17 -891 0
19 -891 0
-17 -19 891 0
17 -892 0
18 -892 0
-17 -18 892 0
9 -893 0
106 -893 0
-9 -106 893 0
10 -894 0
107 -894 0
-10 -107 894 0
-105 -895 0
-108 -895 0
105 108 895 0
-10 -896 0
-107 -896 0
10 107 896 0
-109 -897 0
-110 -897 0
109 110 897 0
11 -898 0
111 -898 0
-11 -111 898 0
-104 -899 0
-112 -899 0
104 112 899 0
-11 -900 0
-111 -900 0
11 111 900 0
-113 -901 0
-114 -901 0
113 114 901 0
12 -902 0
115 -902 0
-12 -115 902 0
-103 -903 0
-116 -903 0
103 116 903 0
-12 -904 0
-115 -904 0
12 115 904 0
-117 -905 0
-118 -905 0
117 118 905 0
13 -906 0
119 -906 0
-13 -119 906 0
-102 -907 0
-120 -907 0
102 120 907 0
-13 -908 0
-119 -908 0
13 119 908 0
-121 -909 0
-122 -909 0
121 122 909 0
14 -910 0
123 -910 0
-14 -123 910 0
-101 -911 0
-124 -911 0
101 124 911 0
-14 -912 0
-123 -912 0
14 123 912 0
-125 -913 0
-126 -913 0
125 126 913 0
15 -914 0
127 -914 0
-15 -127 914 0
-100 -915 0
-128 -915 0
100 128 915 0
-15 -916 0
-127 -916 0
15 127 916 0
-129 -917 0
-130 -917 0
129 130 917 0
16 -918 0
131 -918 0
-16 -131 918 0
-16 -919 0
-131 -919 0
16 131 919 0
-132 -920 0
-133 -920 0
132 133 920 0
-99 -921 0
134 -921 0
99 -134 921 0
82 -922 0
135 -922 0
-82 -135 922 0
-82 -923 0
-135 -923 0
82 135 923 0
-136 -924 0
-137 -924 0
136 137 924 0
-35 -925 0
138 -925 0
35 -138 925 0
35 -926 0
-138 -926 0
-35 138 926 0
-139 -927 0
-140 -927 0
139 140 927 0
-82 -928 0
-132 -928 0
82 132 928 0
-133 -929 0
-142 -929 0
133 142 929 0
83 -930 0
-143 -930 0
-83 143 930 0
-83 -931 0
143 -931 0
83 -143 931 0
-144 -932 0
-145 -932 0
144 145 932 0
-99 -933 0
-146 -933 0
99 146 933 0
-36 -934 0
147 -934 0
36 -147 934 0
36 -935 0
-147 -935 0
-36 147 935 0
-148 -936 0
-149 -936 0
148 149 936 0
141 -937 0
150 -937 0
-141 -150 937 0
9 -938 0
-99 -938 0
-9 99 938 0
-106 -939 0
152 -939 0
106 -152 939 0
106 -940 0
-152 -940 0
-106 152 940 0
-153 -941 0
-154 -941 0
153 154 941 0
-28 -942 0
-155 -942 0
28 155 942 0
28 -943 0
155 -943 0
-28 -155 943 0
-156 -944 0
-157 -944 0
156 157 944 0
27 -945 0
158 -945 0
-27 -158 945 0
-108 -946 0
-110 -946 0
108 110 946 0
-99 -947 0
160 -947 0
99 -160 947 0
105 -948 0
161 -948 0
-105 -161 948 0
-105 -949 0
-161 -949 0
105 161 949 0
-162 -950 0
-163 -950 0
162 163 950 0
-29 -951 0
164 -951 0
29 -164 951 0
29 -952 0
-164 -952 0
-29 164 952 0
-165 -953 0
-166 -953 0
165 166 953 0
-112 -954 0
-114 -954 0
112 114 954 0
-99 -955 0
168 -955 0
99 -168 955 0
104 -956 0
169 -956 0
-104 -169 956 0
-104 -957 0
-169 -957 0
104 169 957 0
-170 -958 0
-171 -958 0
170 171 958 0
-30 -959 0
172 -959 0
30 -172 959 0
30 -960 0
-172 -960 0
-30 172 960 0
-173 -961 0
-174 -961 0
173 174 961 0
167 -962 0
175 -962 0
-167 -175 962 0
159 -963 0
176 -963 0
-159 -176 963 0
-116 -964 0
-118 -964 0
116 118 964 0
-99 -965 0
178 -965 0
99 -178 965 0
103 -966 0
179 -966 0
-103 -179 966 0
-103 -967 0
-179 -967 0
103 179 967 0
-180 -968 0
-181 -968 0
180 181 968 0
-31 -969 0
182 -969 0
31 -182 969 0
31 -970 0
-182 -970 0
-31 182 970 0
-183 -971 0
-184 -971 0
183 184 971 0
-120 -972 0
-122 -972 0
120 122 972 0
-99 -973 0
186 -973 0
99 -186 973 0
102 -974 0
187 -974 0
-102 -187 974 0
-102 -975 0
-187 -975 0
102 187 975 0
-188 -976 0
-189 -976 0
188 189 976 0
-32 -977 0
190 -977 0
32 -190 977 0
32 -978 0
-190 -978 0
-32 190 978 0
-191 -979 0
-192 -979 0
191 192 979 0
185 -980 0
193 -980 0
-185 -193 980 0
-124 -981 0
-126 -981 0
124 126 981 0
-99 -982 0
195 -982 0
99 -195 982 0
101 -983 0
196 -983 0
-101 -196 983 0
-101 -984 0
-196 -984 0
101 196 984 0
-197 -985 0
-198 -985 0
197 198 985 0
-33 -986 0
199 -986 0
33 -199 986 0
33 -987 0
-199 -987 0
-33 199 987 0
-200 -988 0
-201 -988 0
200 201 988 0
-128 -989 0
-130 -989 0
128 130 989 0
-99 -990 0
203 -990 0
99 -203 990 0
100 -991 0
204 -991 0
-100 -204 991 0
-100 -992 0
-204 -992 0
100 204 992 0
-205 -993 0
-206 -993 0
205 206 993 0
-34 -994 0
207 -994 0
34 -207 994 0
34 -995 0
-207 -995 0
-34 207 995 0
-208 -996 0
-209 -996 0
208 209 996 0
202 -997 0
210 -997 0
-202 -210 997 0
194 -998 0
211 -998 0
-194 -211 998 0
177 -999 0
212 -999 0
-177 -212 999 0
151 -1000 0
213 -1000 0
-151 -213 1000 0
18 -1001 0
105 -1001 0
-18 -105 1001 0
104 -1002 0
216 -1002 0
-104 -216 1002 0
103 -1003 0
217 -1003 0
-103 -217 1003 0
102 -1004 0
218 -1004 0
-102 -218 1004 0
101 -1005 0
219 -1005 0
-101 -219 1005 0
100 -1006 0
220 -1006 0
-100 -220 1006 0
82 -1007 0
221 -1007 0
-82 -221 1007 0
83 -1008 0
222 -1008 0
-83 -222 1008 0
-25 -1009 0
-26 -1009 0
25 26 1009 0
-17 -1010 0
-18 -1010 0
17 18 1010 0
-19 -1011 0
-20 -1011 0
19 20 1011 0
226 -1012 0
227 -1012 0
-226 -227 1012 0
-21 -1013 0
-22 -1013 0
21 22 1013 0
-23 -1014 0
-24 -1014 0
23 24 1014 0
229 -1015 0
230 -1015 0
-229 -230 1015 0
228 -1016 0
231 -1016 0
-228 -231 1016 0
225 -1017 0
232 -1017 0
-225 -232 1017 0
